language ESSENCE' 1.0

letting jobs = 102
letting horizon = 819
letting resourcesRenew = 2
letting resourcesNonrenew = 2
letting resourceLimits = [59, 55, 488, 476]
letting successors = [[2, 3, 4, 5, 6, 7, 8, 9, 10, 11, 12, 13, 14, 16, 17, 18, 19, 21, 22, 23, 24, 25, 26, 27, 29, 33, 37, 44, 46, 49, 63], [98, 95, 88, 70, 62, 61, 52, 48, 38, 36, 35, 34, 15], [99, 94, 70, 69, 68, 62, 60, 55, 54, 52, 50, 39, 36, 32, 30], [100, 98, 94, 85, 69, 68, 61, 59, 56, 52, 50, 48, 47, 43, 38, 32, 31], [100, 98, 68, 66, 62, 58, 54, 47, 36, 28, 20], [100, 87, 70, 60, 59, 58, 52, 48, 45, 41, 38, 35, 28], [99, 97, 96, 91, 89, 88, 85, 71, 69, 68, 66, 61, 58, 52, 50, 48, 47, 42, 41, 39], [98, 97, 96, 95, 94, 93, 92, 91, 90, 88, 68, 67, 62, 61, 58, 57, 54, 53, 42, 35], [98, 97, 96, 95, 94, 93, 92, 91, 90, 88, 87, 70, 69, 68, 67, 61, 55, 54, 42, 35], [100, 99, 96, 95, 94, 93, 92, 91, 89, 88, 85, 80, 69, 68, 67, 66, 58, 53, 52, 47, 38], [101, 95, 92, 91, 69, 68, 66, 64, 61, 60, 59, 52, 51, 47, 30], [99, 97, 95, 94, 89, 81, 69, 68, 64, 60, 56, 55, 42, 32], [96, 95, 91, 85, 66, 58, 53, 52, 50, 48, 47, 41, 38, 30], [94, 91, 87, 85, 70, 61, 52, 48, 43, 35, 30], [100, 99, 97, 96, 94, 93, 92, 91, 90, 81, 69, 68, 67, 64, 60, 54, 53, 51, 42], [96, 95, 92, 88, 87, 81, 69, 68, 67, 66, 59, 52, 50, 42, 36], [98, 97, 96, 95, 94, 93, 92, 91, 90, 88, 84, 83, 82, 81, 77, 71, 67, 66, 65, 58, 40], [95, 94, 91, 87, 68, 54, 35, 30], [99, 97, 95, 89, 86, 85, 82, 80, 79, 68, 67, 65, 64, 62, 59, 55, 52, 47], [97, 94, 92, 91, 89, 88, 80, 79, 67, 64, 59, 53, 52, 50, 38], [90, 88, 87, 85, 81, 71, 68, 64, 60, 59, 58, 55, 52, 50, 42], [98, 94, 91, 90, 88, 87, 86, 85, 84, 80, 77, 76, 70, 69, 68, 66, 64, 43], [94, 93, 91, 88, 87, 85, 81, 58, 53, 50, 42, 39], [94, 93, 92, 90, 88, 85, 80, 79, 67, 64, 58, 52, 50, 42], [100, 97, 96, 94, 91, 89, 83, 81, 80, 66, 59, 52, 50, 48], [97, 92, 91, 89, 85, 81, 80, 76, 71, 69, 67, 64, 42], [98, 95, 94, 93, 92, 91, 89, 88, 87, 85, 80, 79, 77, 70, 65, 64, 55, 52], [99, 97, 96, 95, 94, 93, 91, 88, 86, 85, 80, 77, 76, 74, 64, 53], [98, 95, 94, 93, 90, 89, 86, 83, 82, 81, 79, 78, 77, 76, 75, 72, 66], [97, 90, 89, 88, 81, 80, 72, 42], [89, 88, 81, 79, 78, 72, 64, 42], [96, 92, 91, 88, 87, 80, 77, 67, 66, 58, 53], [98, 96, 89, 87, 85, 82, 81, 77, 76, 75, 72, 71, 60], [96, 78, 77, 74, 65, 58, 47], [89, 83, 82, 81, 79, 78, 66, 64, 50], [97, 93, 90, 89, 84, 80, 78, 77, 74, 72, 65, 64], [90, 88, 85, 81, 80, 76, 66, 64, 59], [81, 78, 72, 42], [98, 95, 82, 80, 78, 77, 75, 72, 64], [87, 80, 79, 76, 72, 68, 54], [94, 84, 81, 80, 79, 78, 77, 74, 73], [86, 84, 83, 82, 77, 75, 74, 65], [96, 95, 92, 81, 79, 78, 73, 67], [96, 80, 77, 75, 74, 73, 72, 69], [91, 89, 85, 79, 76, 75, 73, 72], [93, 91, 84, 78, 77, 76, 75, 72], [90, 87, 83, 81, 76, 75, 72], [92, 79, 77, 75, 72, 64], [87, 79, 76, 72, 66], [76, 75, 74, 73, 72], [85, 79, 76, 72], [78, 76, 75], [78, 73, 72], [85, 78, 74], [78, 76, 73], [90, 74, 73], [82, 80, 75], [75, 72], [93, 77], [80, 79], [81, 76], [87, 76], [78, 73], [73], [73], [74], [72], [74], [79], [72], [79], [102], [102], [102], [102], [102], [102], [102], [102], [102], [102], [102], [102], [102], [102], [102], [102], [102], [102], [102], [102], [102], [102], [102], [102], [102], [102], [102], [102], [102], [102], []]
letting durations = [[0], [1, 5, 9], [1, 2, 9], [3, 8, 10], [3, 6, 9], [1, 6, 10], [1, 5, 6], [3, 4, 5], [6, 7, 8], [2, 4, 9], [2, 3, 8], [8, 9, 10], [1, 3, 4], [4, 5, 8], [3, 4, 6], [2, 3, 8], [2, 3, 5], [2, 3, 5], [3, 5, 9], [6, 7, 10], [3, 6, 7], [2, 4, 10], [2, 5, 7], [8, 9, 10], [7, 8, 9], [2, 5, 7], [4, 8, 9], [5, 8, 9], [6, 8, 9], [6, 9, 10], [1, 5, 7], [2, 3, 8], [5, 6, 7], [1, 4, 6], [3, 5, 9], [1, 7, 9], [1, 9, 10], [7, 8, 10], [2, 6, 8], [1, 4, 7], [1, 2, 9], [5, 6, 9], [2, 4, 5], [7, 8, 10], [7, 9, 10], [3, 5, 10], [2, 7, 9], [4, 5, 9], [1, 9, 10], [6, 7, 9], [1, 3, 7], [7, 8, 10], [2, 6, 10], [1, 6, 9], [2, 4, 5], [1, 5, 7], [3, 4, 7], [5, 9, 10], [2, 8, 9], [6, 7, 8], [5, 6, 9], [3, 7, 8], [3, 6, 9], [3, 4, 10], [6, 7, 8], [2, 3, 7], [3, 7, 9], [6, 9, 10], [3, 9, 10], [3, 4, 9], [3, 5, 7], [2, 7, 8], [7, 8, 9], [5, 6, 8], [1, 3, 9], [2, 4, 6], [1, 3, 8], [7, 8, 9], [2, 6, 10], [3, 9, 10], [3, 6, 7], [3, 5, 6], [5, 9, 10], [3, 5, 8], [1, 4, 10], [3, 6, 9], [6, 7, 8], [3, 8, 9], [1, 3, 6], [2, 3, 5], [5, 6, 7], [2, 3, 5], [3, 5, 6], [1, 2, 6], [1, 2, 8], [1, 4, 5], [5, 6, 7], [5, 7, 8], [2, 7, 10], [1, 4, 9], [7, 8, 9], [0]]
letting resourceUsage = [[[0, 0, 0, 0]], [[8, 8, 9, 7], [7, 6, 7, 7], [6, 5, 4, 7]], [[6, 6, 8, 9], [4, 4, 6, 8], [3, 4, 3, 8]], [[6, 4, 8, 5], [6, 2, 7, 4], [5, 2, 6, 1]], [[9, 8, 6, 5], [7, 8, 6, 4], [7, 5, 5, 2]], [[8, 9, 5, 6], [7, 8, 4, 4], [7, 7, 4, 2]], [[9, 7, 4, 8], [7, 7, 4, 5], [5, 7, 3, 5]], [[9, 1, 8, 4], [8, 1, 7, 3], [7, 1, 5, 2]], [[8, 6, 9, 8], [8, 6, 7, 6], [7, 6, 7, 6]], [[5, 8, 9, 10], [3, 7, 7, 6], [3, 6, 5, 2]], [[6, 3, 8, 3], [5, 2, 4, 1], [4, 1, 2, 1]], [[3, 5, 8, 6], [3, 3, 7, 6], [2, 3, 7, 3]], [[9, 6, 5, 2], [9, 6, 3, 2], [9, 5, 3, 2]], [[4, 4, 9, 7], [3, 4, 9, 7], [3, 4, 9, 6]], [[6, 7, 6, 10], [6, 6, 4, 7], [4, 6, 3, 6]], [[9, 1, 6, 10], [7, 1, 4, 10], [5, 1, 3, 10]], [[4, 6, 6, 4], [3, 6, 5, 3], [2, 5, 5, 3]], [[7, 9, 8, 2], [6, 8, 6, 2], [4, 8, 2, 2]], [[5, 10, 5, 9], [5, 5, 5, 3], [3, 5, 4, 1]], [[10, 10, 6, 10], [8, 8, 3, 7], [8, 8, 3, 4]], [[6, 7, 9, 9], [4, 5, 5, 6], [2, 3, 2, 4]], [[3, 7, 7, 8], [3, 5, 6, 5], [3, 3, 4, 4]], [[10, 9, 8, 7], [6, 6, 8, 4], [1, 6, 8, 3]], [[7, 4, 7, 4], [6, 2, 6, 4], [6, 2, 6, 3]], [[6, 5, 2, 7], [6, 5, 1, 6], [5, 5, 1, 6]], [[4, 6, 9, 8], [2, 4, 6, 7], [2, 4, 4, 7]], [[10, 3, 9, 4], [8, 3, 6, 4], [8, 1, 6, 4]], [[3, 8, 8, 3], [3, 6, 5, 1], [3, 3, 4, 1]], [[9, 5, 9, 5], [7, 3, 6, 5], [7, 2, 3, 4]], [[6, 5, 5, 10], [5, 5, 2, 8], [4, 4, 2, 7]], [[6, 5, 5, 8], [3, 4, 3, 6], [2, 3, 3, 2]], [[8, 8, 9, 9], [8, 7, 6, 9], [6, 5, 4, 9]], [[6, 8, 3, 7], [5, 7, 2, 3], [3, 5, 2, 3]], [[10, 4, 8, 4], [10, 2, 7, 4], [10, 2, 7, 2]], [[6, 7, 10, 9], [6, 3, 6, 8], [4, 2, 6, 6]], [[9, 9, 4, 7], [8, 9, 4, 6], [5, 9, 4, 5]], [[5, 6, 5, 2], [4, 5, 4, 1], [2, 4, 4, 1]], [[7, 7, 8, 2], [6, 6, 8, 2], [4, 5, 7, 2]], [[5, 7, 3, 7], [4, 5, 3, 5], [2, 2, 3, 4]], [[5, 8, 3, 4], [4, 6, 3, 3], [1, 5, 3, 3]], [[8, 6, 5, 9], [8, 4, 4, 5], [8, 4, 3, 2]], [[4, 5, 9, 8], [3, 4, 9, 8], [3, 2, 9, 6]], [[7, 4, 8, 10], [7, 3, 7, 6], [3, 3, 4, 5]], [[10, 8, 3, 5], [6, 8, 3, 4], [5, 8, 3, 4]], [[7, 9, 6, 3], [7, 4, 6, 3], [5, 3, 6, 3]], [[2, 9, 2, 5], [1, 8, 1, 5], [1, 7, 1, 5]], [[7, 5, 7, 5], [6, 4, 6, 5], [5, 3, 6, 5]], [[5, 10, 9, 5], [3, 8, 8, 4], [3, 8, 7, 3]], [[8, 4, 1, 6], [7, 3, 1, 3], [6, 2, 1, 2]], [[6, 8, 4, 3], [5, 8, 3, 3], [5, 8, 2, 3]], [[9, 9, 2, 9], [7, 9, 1, 6], [6, 9, 1, 4]], [[4, 9, 4, 2], [3, 5, 3, 2], [2, 4, 2, 2]], [[7, 8, 9, 8], [6, 6, 4, 5], [3, 4, 3, 2]], [[8, 8, 7, 9], [8, 6, 6, 9], [5, 3, 6, 9]], [[8, 3, 9, 7], [6, 3, 9, 7], [4, 2, 8, 7]], [[9, 4, 10, 9], [8, 3, 10, 7], [7, 3, 10, 5]], [[7, 8, 5, 10], [7, 8, 4, 9], [6, 8, 4, 9]], [[8, 3, 3, 6], [5, 1, 2, 5], [3, 1, 2, 4]], [[8, 7, 3, 8], [6, 6, 3, 7], [5, 2, 3, 7]], [[2, 7, 5, 9], [1, 5, 3, 8], [1, 5, 1, 6]], [[6, 5, 5, 3], [5, 5, 2, 3], [3, 4, 2, 3]], [[6, 3, 9, 5], [6, 3, 9, 3], [6, 1, 9, 2]], [[6, 9, 10, 7], [5, 7, 8, 6], [5, 5, 8, 5]], [[4, 4, 5, 7], [4, 3, 5, 7], [4, 3, 5, 5]], [[5, 7, 8, 5], [2, 7, 6, 4], [1, 7, 3, 4]], [[7, 6, 7, 10], [4, 4, 6, 9], [2, 3, 4, 7]], [[5, 6, 7, 8], [3, 5, 6, 4], [1, 2, 6, 3]], [[9, 5, 8, 8], [8, 4, 7, 8], [7, 4, 7, 7]], [[9, 6, 6, 7], [6, 6, 5, 6], [3, 6, 4, 5]], [[10, 9, 8, 4], [10, 6, 5, 4], [10, 2, 5, 4]], [[1, 8, 8, 8], [1, 8, 6, 5], [1, 7, 2, 3]], [[1, 10, 6, 7], [1, 9, 6, 6], [1, 8, 6, 6]], [[9, 4, 8, 6], [6, 4, 4, 4], [6, 4, 3, 3]], [[9, 4, 2, 9], [8, 4, 2, 7], [8, 4, 1, 5]], [[7, 8, 10, 2], [5, 7, 7, 2], [3, 7, 2, 1]], [[6, 7, 7, 9], [6, 6, 5, 6], [5, 6, 5, 5]], [[5, 4, 6, 9], [4, 3, 2, 7], [4, 2, 1, 7]], [[5, 9, 10, 6], [4, 8, 8, 6], [4, 8, 8, 5]], [[9, 8, 4, 3], [6, 7, 3, 1], [2, 4, 3, 1]], [[4, 9, 6, 6], [3, 8, 6, 4], [1, 8, 5, 4]], [[3, 7, 8, 5], [3, 7, 6, 5], [3, 7, 1, 5]], [[6, 9, 7, 4], [4, 4, 3, 2], [4, 4, 3, 1]], [[5, 7, 4, 6], [4, 6, 4, 5], [4, 6, 2, 4]], [[8, 3, 8, 7], [3, 2, 5, 6], [3, 1, 1, 6]], [[8, 7, 10, 3], [7, 6, 9, 2], [5, 6, 8, 1]], [[8, 5, 7, 9], [8, 4, 7, 7], [8, 2, 2, 6]], [[5, 5, 7, 5], [4, 5, 6, 5], [4, 5, 5, 3]], [[6, 9, 9, 5], [3, 7, 8, 4], [3, 6, 8, 4]], [[6, 8, 6, 7], [3, 4, 6, 6], [2, 2, 4, 6]], [[4, 9, 8, 7], [2, 8, 6, 6], [1, 8, 6, 5]], [[8, 6, 10, 6], [7, 5, 6, 6], [7, 5, 5, 5]], [[7, 2, 9, 8], [6, 2, 9, 7], [3, 1, 8, 7]], [[10, 10, 3, 4], [9, 9, 3, 3], [8, 9, 3, 3]], [[8, 8, 4, 8], [7, 8, 4, 4], [5, 7, 4, 4]], [[5, 5, 5, 2], [5, 5, 3, 1], [4, 5, 3, 1]], [[7, 9, 7, 3], [4, 9, 7, 3], [2, 8, 7, 3]], [[7, 7, 7, 8], [5, 4, 7, 8], [4, 2, 5, 8]], [[10, 8, 5, 5], [9, 8, 5, 4], [8, 8, 2, 4]], [[5, 6, 10, 6], [5, 4, 7, 6], [2, 3, 6, 6]], [[7, 7, 5, 1], [5, 7, 2, 1], [3, 7, 2, 1]], [[5, 4, 9, 9], [3, 3, 8, 9], [2, 1, 8, 9]], [[0, 0, 0, 0]]]
